c Random 2 Leveled Graph
c 4 Rows, 4 columns, capacities in range [0, 100]
p max 18 44
n 1 s
n 18 t
a 1 5 300
a 1 4 300
a 1 3 300
a 1 2 300
a 2 7 92
a 2 6 83
a 2 8 24
a 3 8 62
a 3 6 20
a 3 7 66
a 4 7 54
a 4 9 73
a 4 8 27
a 5 9 46
a 5 6 12
a 5 8 94
a 6 13 63
a 6 12 23
a 6 11 59
a 7 11 92
a 7 10 16
a 7 13 14
a 8 10 92
a 8 11 15
a 8 12 90
a 9 10 66
a 9 13 49
a 9 11 25
a 10 14 91
a 10 17 67
a 10 16 71
a 11 16 30
a 11 15 11
a 11 14 18
a 12 15 65
a 12 16 98
a 12 14 71
a 13 15 65
a 13 14 50
a 13 17 81
a 14 18 300
a 15 18 300
a 16 18 300
a 17 18 300
